Solving original (integer) problem with strategy gdp.bigm...
--- Job model.gms Start 02/15/26 23:27:33 52.2.0 d8e408be LEX-LEG x86 64bit/Linux
--- Applying:
    /package/gams/52.2/gmsprmun.txt
--- GAMS Parameters defined
    Input /local/scratch/a/sgusev/repos/k_means/data/gams_scip_gdp.bigm/no_mode/2026-02-15_23-27-33/original/model.gms
    Output /local/scratch/a/sgusev/repos/k_means/data/gams_scip_gdp.bigm/no_mode/2026-02-15_23-27-33/original/output.lst
    ScrDir /local/scratch/a/sgusev/repos/k_means/data/gams_scip_gdp.bigm/no_mode/2026-02-15_23-27-33/original/225a/
    SysDir /package/gams/52.2/
    CurDir /local/scratch/a/sgusev/repos/k_means/data/gams_scip_gdp.bigm/no_mode/2026-02-15_23-27-33/original/
    LogOption 3
    AppendLog 1
Licensee: David Bernal / SECQUOIA Research Group         G251008+0003Ac-GEN
          Purdue University, Davidson School of Chemical EngineeringDCE4838
          225a/gamslice.dat
          5a82958a-fbca-4a23
          node:66820903 mem:995 cores:48 ipport:39383 v:2                  
          Evaluation license: Not for commercial or production use
          The time-limited license stops working on : Jun 30, 2027
System information: 48 physical cores and 995 Gb physical memory detected
GAMS 52.2.0   Copyright (C) 1987-2025 GAMS Development. All rights reserved
--- Starting compilation
--- model.gms(297) 2 Mb
--- $echo File /local/scratch/a/sgusev/repos/k_means/data/gams_scip_gdp.bigm/no_mode/2026-02-15_23-27-33/original/scip.opt
--- model.gms(524) 2 Mb
--- Starting execution: elapsed 0:00:00.007
--- model.gms(307) 3 Mb
--- Generating MINLP model GAMS_MODEL
--- model.gms(311) 5 Mb
---   77 rows  83 columns  321 non-zeroes
---   540 nl-code  120 nl-non-zeroes
---   60 discrete-columns
--- Range statistics (absolute non-zero finite values)
--- RHS       [min, max] : [ 1.000E+00, 7.052E+00] - Zero values observed as well
--- Bound     [min, max] : [ 1.000E+00, 4.800E+01] - Zero values observed as well
--- Matrix    [min, max] : [ 5.632E-03, 7.052E+00]
--- model.gms(311) 3 Mb
--- Executing SCIP (Solvelink=5): elapsed 0:00:00.010

SCIP             52.2.0 d8e408be Dec 8, 2025           LEG x86 64bit/Linux    
SCIP version 9.2.4 (a94f778ac8)
Copyright (c) 2002-2025 Zuse Institute Berlin (ZIB)

External libraries: 
  CPLEX 22.1.2.0       Linear Programming Solver developed by IBM (www.cplex.com)
  CppAD 20180000.0     Algorithmic Differentiation of C++ algorithms developed by B. Bell (github.com/coin-or/CppAD)
  PaPILO 2.4.4         parallel presolve for integer and linear optimization (github.com/scipopt/papilo) (built with TBB) [GitHash: 7c826d50]
  Nauty 2.8.9          Computing Graph Automorphism Groups by Brendan D. McKay (users.cecs.anu.edu.au/~bdm/nauty)
  sassy 1.1            Symmetry preprocessor by Markus Anders (github.com/markusa4/sassy)
  Ipopt 3.14.19        Interior Point Optimizer developed by A. Waechter et.al. (github.com/coin-or/Ipopt)

reading option file /local/scratch/a/sgusev/repos/k_means/data/gams_scip_gdp.bigm/no_mode/2026-02-15_23-27-33/original/scip.opt
non-default parameter settings:
limits/time = 300
limits/gap = 1e-06
limits/absgap = 1e-10
lp/threads = 1
misc/printreason = FALSE
numerics/dualfeastol = 1e-06
parallel/maxnthreads = 1
nlpi/ipopt/linear_solver = "ma27"
nlpi/ipopt/linear_system_scaling = "mc19"

original problem has 82 variables (60 bin, 0 int, 22 cont) and 76 constraints

all 1 solutions given by solution candidate storage are infeasible

presolving:
(round 1, exhaustive) 0 del vars, 0 del conss, 0 add conss, 0 chg bounds, 0 chg sides, 0 chg coeffs, 12 upgd conss, 0 impls, 12 clqs
   (0.0s) probing: 51/60 (85.0%) - 0 fixings, 0 aggregations, 0 implications, 0 bound changes
   (0.0s) probing aborted: 50/50 successive totally useless probings
   (0.0s) symmetry computation started: requiring (bin +, int +, cont +), (fixed: bin -, int -, cont -)
   (0.0s) no symmetry present (symcode time: 0.00)
presolving (2 rounds: 2 fast, 2 medium, 2 exhaustive):
 0 deleted vars, 0 deleted constraints, 0 added constraints, 0 tightened bounds, 0 added holes, 0 changed sides, 0 changed coefficients
 0 implications, 12 cliques
presolved problem has 82 variables (60 bin, 0 int, 0 impl, 22 cont) and 76 constraints
     12 constraints of type <setppc>
      4 constraints of type <linear>
     60 constraints of type <nonlinear>
Presolving Time: 0.01

 time | node  | left  |LP iter|LP it/n|mem/heur|mdpt |vars |cons |rows |cuts |sepa|confs|strbr|  dualbound   | primalbound  |  gap   | compl. 
t 0.0s|     1 |     0 |    36 |     - |  trysol|   0 | 152 |  76 |  96 |   0 |  0 |   0 |   0 | 0.000000e+00 | 9.282373e+00 |    Inf | unknown
  0.0s|     1 |     0 |    84 |     - |  2475k |   0 | 152 |  76 |  96 |   0 |  0 |   0 |   0 | 0.000000e+00 | 9.282373e+00 |    Inf | unknown
L 0.2s|     1 |     0 |    84 |     - |undercov|   0 | 152 |  76 |  96 |   0 |  0 |   0 |   0 | 0.000000e+00 | 7.867534e+00 |    Inf | unknown
L 0.2s|     1 |     0 |    84 |     - |undercov|   0 | 152 |  76 |  96 |   0 |  0 |   0 |   0 | 0.000000e+00 | 2.229089e+00 |    Inf | unknown
  0.2s|     1 |     0 |   102 |     - |  2513k |   0 | 152 |  76 | 107 |  11 |  1 |   0 |   0 | 0.000000e+00 | 2.229089e+00 |    Inf | unknown
  0.2s|     1 |     0 |   102 |     - |  2525k |   0 | 152 |  76 | 107 |  11 |  1 |   0 |   0 | 0.000000e+00 | 2.229089e+00 |    Inf | unknown
  0.2s|     1 |     0 |   120 |     - |  2613k |   0 | 152 |  76 | 115 |  19 |  2 |   0 |   0 | 0.000000e+00 | 2.229089e+00 |    Inf | unknown
  0.2s|     1 |     0 |   137 |     - |  2682k |   0 | 152 |  76 | 123 |  27 |  3 |   0 |   0 | 0.000000e+00 | 2.229089e+00 |    Inf | unknown
  0.2s|     1 |     0 |   163 |     - |  2913k |   0 | 152 |  76 | 132 |  36 |  4 |   0 |   0 | 0.000000e+00 | 2.229089e+00 |    Inf | unknown
  0.2s|     1 |     0 |   180 |     - |  3116k |   0 | 152 |  76 | 141 |  45 |  5 |   0 |   0 | 0.000000e+00 | 2.229089e+00 |    Inf | unknown
  0.2s|     1 |     0 |   194 |     - |  3277k |   0 | 152 |  76 | 151 |  55 |  6 |   0 |   0 | 0.000000e+00 | 2.229089e+00 |    Inf | unknown
  0.2s|     1 |     0 |   204 |     - |  3344k |   0 | 152 |  76 | 159 |  63 |  7 |   0 |   0 | 0.000000e+00 | 2.229089e+00 |    Inf | unknown
  0.2s|     1 |     0 |   224 |     - |  3439k |   0 | 152 |  76 | 169 |  73 |  8 |   0 |   0 | 0.000000e+00 | 2.229089e+00 |    Inf | unknown
  0.2s|     1 |     0 |   237 |     - |  3602k |   0 | 152 |  76 | 175 |  79 |  9 |   0 |   0 | 0.000000e+00 | 2.229089e+00 |    Inf | unknown
  0.2s|     1 |     0 |   253 |     - |  3938k |   0 | 152 |  76 | 182 |  86 | 10 |   0 |   0 | 0.000000e+00 | 2.229089e+00 |    Inf | unknown
 time | node  | left  |LP iter|LP it/n|mem/heur|mdpt |vars |cons |rows |cuts |sepa|confs|strbr|  dualbound   | primalbound  |  gap   | compl. 
  0.2s|     1 |     0 |   276 |     - |  3975k |   0 | 152 |  76 | 191 |  95 | 11 |   0 |   0 | 0.000000e+00 | 2.229089e+00 |    Inf | unknown
  0.5s|     1 |     0 |   390 |     - |  4224k |   0 | 152 |  76 | 191 |  95 | 11 |   0 |   5 | 0.000000e+00 | 2.229089e+00 |    Inf | unknown
  0.5s|     1 |     0 |   402 |     - |  4297k |   0 | 152 |  76 | 199 | 103 | 12 |   0 |   5 | 0.000000e+00 | 2.229089e+00 |    Inf | unknown
  0.5s|     1 |     0 |   420 |     - |  4299k |   0 | 152 |  76 | 207 | 111 | 13 |   0 |   5 | 0.000000e+00 | 2.229089e+00 |    Inf | unknown
  0.5s|     1 |     0 |   420 |     - |  4301k |   0 | 152 |  76 | 207 | 111 | 13 |   0 |  10 | 0.000000e+00 | 2.229089e+00 |    Inf | unknown
  0.5s|     1 |     0 |   441 |     - |  4337k |   0 | 152 |  76 | 215 | 119 | 14 |   0 |  10 | 0.000000e+00 | 2.229089e+00 |    Inf | unknown
  0.5s|     1 |     0 |   464 |     - |  4341k |   0 | 152 |  76 | 222 | 126 | 15 |   0 |  10 | 0.000000e+00 | 2.229089e+00 |    Inf | unknown
  0.5s|     1 |     0 |   464 |     - |  4344k |   0 | 152 |  76 | 222 | 126 | 15 |   0 |  15 | 0.000000e+00 | 2.229089e+00 |    Inf | unknown
  0.6s|     1 |     0 |   480 |     - |  4439k |   0 | 152 |  76 | 230 | 134 | 16 |   0 |  15 | 0.000000e+00 | 2.229089e+00 |    Inf | unknown
  0.6s|     1 |     0 |   490 |     - |  4441k |   0 | 152 |  76 | 104 | 141 | 17 |   0 |  15 | 0.000000e+00 | 2.229089e+00 |    Inf | unknown
  0.6s|     1 |     0 |   490 |     - |  4441k |   0 | 152 |  76 | 104 | 141 | 17 |   0 |  20 | 0.000000e+00 | 2.229089e+00 |    Inf | unknown
  0.6s|     1 |     0 |   501 |     - |  4451k |   0 | 152 |  76 | 112 | 149 | 18 |   0 |  20 | 0.000000e+00 | 2.229089e+00 |    Inf | unknown
  0.6s|     1 |     0 |   514 |     - |  4453k |   0 | 152 |  76 | 120 | 157 | 19 |   0 |  20 | 0.000000e+00 | 2.229089e+00 |    Inf | unknown
  0.6s|     1 |     0 |   514 |     - |  4455k |   0 | 152 |  76 | 120 | 157 | 19 |   0 |  25 | 0.000000e+00 | 2.229089e+00 |    Inf | unknown
  0.6s|     1 |     0 |   524 |     - |  4467k |   0 | 152 |  76 | 129 | 166 | 20 |   0 |  25 | 0.000000e+00 | 2.229089e+00 |    Inf | unknown
 time | node  | left  |LP iter|LP it/n|mem/heur|mdpt |vars |cons |rows |cuts |sepa|confs|strbr|  dualbound   | primalbound  |  gap   | compl. 
  0.6s|     1 |     0 |   534 |     - |  4469k |   0 | 152 |  76 | 137 | 174 | 21 |   0 |  25 | 0.000000e+00 | 2.229089e+00 |    Inf | unknown
  0.6s|     1 |     0 |   534 |     - |  4469k |   0 | 152 |  76 | 137 | 174 | 21 |   0 |  30 | 0.000000e+00 | 2.229089e+00 |    Inf | unknown
  0.6s|     1 |     0 |   542 |     - |  4490k |   0 | 152 |  76 | 145 | 182 | 22 |   0 |  30 | 0.000000e+00 | 2.229089e+00 |    Inf | unknown
  0.6s|     1 |     0 |   551 |     - |  4492k |   0 | 152 |  76 | 100 | 189 | 23 |   0 |  30 | 0.000000e+00 | 2.229089e+00 |    Inf | unknown
  0.6s|     1 |     0 |   551 |     - |  4493k |   0 | 152 |  76 | 100 | 189 | 23 |   0 |  35 | 0.000000e+00 | 2.229089e+00 |    Inf | unknown
  0.6s|     1 |     0 |   559 |     - |  4503k |   0 | 152 |  76 | 105 | 194 | 24 |   0 |  35 | 0.000000e+00 | 2.229089e+00 |    Inf | unknown
  0.6s|     1 |     0 |   566 |     - |  4504k |   0 | 152 |  76 | 109 | 198 | 25 |   0 |  35 | 0.000000e+00 | 2.229089e+00 |    Inf | unknown
  0.6s|     1 |     0 |   566 |     - |  4505k |   0 | 152 |  76 | 109 | 198 | 25 |   0 |  37 | 0.000000e+00 | 2.229089e+00 |    Inf | unknown
  0.6s|     1 |     0 |   575 |     - |  4530k |   0 | 152 |  76 | 116 | 205 | 26 |   0 |  37 | 0.000000e+00 | 2.229089e+00 |    Inf | unknown
  0.6s|     1 |     0 |   582 |     - |  4531k |   0 | 152 |  76 | 120 | 209 | 27 |   0 |  37 | 0.000000e+00 | 2.229089e+00 |    Inf | unknown
  0.6s|     1 |     2 |   582 |     - |  4531k |   0 | 152 |  76 | 120 | 209 | 27 |   0 |  37 | 0.000000e+00 | 2.229089e+00 |    Inf | unknown
  1.0s|   100 |   101 |  4868 |  44.8 |  6975k |  13 | 152 | 110 | 142 |2270 |  3 |  37 | 178 | 0.000000e+00 | 2.229089e+00 |    Inf | unknown
d 1.0s|   102 |   103 |  4967 |  44.9 |nlpdivin|  13 | 152 | 110 | 148 |   0 |  2 |  37 | 188 | 0.000000e+00 | 2.150453e+00 |    Inf | unknown
  1.4s|   200 |   191 | 10334 |  49.8 |    10M |  19 | 152 | 159 | 202 |4516 |  7 |  93 | 240 | 0.000000e+00 | 2.150453e+00 |    Inf |   5.08%
t 1.4s|   218 |   194 | 11152 |  49.4 |  trysol|  19 | 152 | 160 |   0 |4825 |  0 |  96 | 240 | 0.000000e+00 | 2.028670e+00 |    Inf |   6.87%
 time | node  | left  |LP iter|LP it/n|mem/heur|mdpt |vars |cons |rows |cuts |sepa|confs|strbr|  dualbound   | primalbound  |  gap   | compl. 
t 1.7s|   291 |   185 | 14569 |  48.7 |  trysol|  22 | 152 | 114 |   0 |6451 |  0 | 113 | 247 | 0.000000e+00 | 1.606082e+00 |    Inf |  18.40%
  1.7s|   300 |   192 | 14815 |  48.1 |    10M |  22 | 152 | 118 | 170 |6572 |  2 | 117 | 247 | 0.000000e+00 | 1.606082e+00 |    Inf |  18.41%
L 1.8s|   324 |   196 | 15438 |  46.5 |    alns|  22 | 152 | 117 | 230 |6923 | 16 | 126 | 251 | 0.000000e+00 | 1.585077e+00 |    Inf |  19.31%
L 1.9s|   386 |   225 | 17822 |  45.2 |    alns|  24 | 152 | 134 | 211 |8219 |  2 | 147 | 265 | 0.000000e+00 | 1.532602e+00 |    Inf |  19.66%
L 2.0s|   386 |   225 | 17822 |  45.2 |    alns|  24 | 152 | 134 | 211 |8219 |  2 | 147 | 265 | 0.000000e+00 | 1.532599e+00 |    Inf |  19.66%
  2.0s|   400 |   227 | 18140 |  44.4 |    11M |  24 | 152 | 134 | 163 |8394 |  0 | 148 | 265 | 0.000000e+00 | 1.532599e+00 |    Inf |  20.12%
  2.3s|   500 |   265 | 21997 |  43.2 |    11M |  28 | 152 | 168 | 210 |  10k|  5 | 189 | 277 | 0.000000e+00 | 1.532599e+00 |    Inf |  22.48%
* 2.3s|   501 |   221 | 22024 |  43.2 |    LP  |  29 | 152 | 168 | 229 |  10k|  9 | 189 | 277 | 0.000000e+00 | 1.326898e+00 |    Inf |  23.52%
  2.6s|   600 |   252 | 25318 |  41.5 |    12M |  29 | 152 | 193 | 198 |  11k|  1 | 230 | 306 | 0.000000e+00 | 1.326898e+00 |    Inf |  27.33%
  2.8s|   700 |   275 | 27580 |  38.8 |    12M |  29 | 152 | 202 | 121 |  12k|  2 | 256 | 319 | 0.000000e+00 | 1.326898e+00 |    Inf |  29.15%
  3.1s|   800 |   312 | 31236 |  38.6 |    12M |  29 | 152 | 236 | 179 |  14k|  3 | 303 | 340 | 0.000000e+00 | 1.326898e+00 |    Inf |  30.66%
  3.4s|   900 |   364 | 34327 |  37.7 |    13M |  29 | 152 | 262 | 185 |  16k|  0 | 337 | 354 | 0.000000e+00 | 1.326898e+00 |    Inf |  31.13%
t 3.4s|   911 |   366 | 34788 |  37.8 |  trysol|  29 | 152 | 210 | 194 |  16k|  7 | 341 | 356 | 0.000000e+00 | 1.319936e+00 |    Inf |  31.13%
t 3.4s|   917 |   254 | 34878 |  37.6 |  trysol|  29 | 152 | 210 | 185 |  16k|  0 | 341 | 356 | 0.000000e+00 | 1.048757e+00 |    Inf |  32.43%
t 3.4s|   917 |   245 | 34881 |  37.6 |  trysol|  29 | 152 | 117 | 185 |  16k|  2 | 341 | 357 | 0.000000e+00 | 1.022558e+00 |    Inf |  41.77%
 time | node  | left  |LP iter|LP it/n|mem/heur|mdpt |vars |cons |rows |cuts |sepa|confs|strbr|  dualbound   | primalbound  |  gap   | compl. 
t 3.4s|   917 |   242 | 34883 |  37.6 |  trysol|  29 | 152 | 117 | 187 |  16k|  3 | 341 | 357 | 0.000000e+00 | 1.012434e+00 |    Inf |  41.77%
* 3.4s|   918 |   211 | 34920 |  37.6 |    LP  |  29 | 152 | 117 | 214 |  16k|  8 | 341 | 357 | 0.000000e+00 | 9.158305e-01 |    Inf |  42.01%
  3.6s|  1000 |   222 | 37295 |  36.9 |    13M |  29 | 152 | 116 | 227 |  17k|  6 | 361 | 366 | 0.000000e+00 | 9.158305e-01 |    Inf |  44.73%
  3.8s|  1100 |   241 | 40254 |  36.2 |    13M |  29 | 152 | 123 | 222 |  19k|  6 | 385 | 403 | 0.000000e+00 | 9.158305e-01 |    Inf |  46.58%
  4.4s|  1200 |   246 | 42253 |  34.9 |    13M |  29 | 152 | 135 | 162 |  19k|  2 | 404 | 420 | 0.000000e+00 | 9.158305e-01 |    Inf |  48.75%
  4.6s|  1300 |   265 | 44271 |  33.7 |    13M |  29 | 152 | 145 | 204 |  20k|  7 | 418 | 440 | 0.000000e+00 | 9.158305e-01 |    Inf |  50.29%
  4.8s|  1400 |   287 | 47574 |  33.7 |    13M |  29 | 152 | 158 | 161 |  22k|  1 | 440 | 465 | 0.000000e+00 | 9.158305e-01 |    Inf |  50.67%
  5.1s|  1500 |   299 | 51199 |  33.9 |    14M |  29 | 152 | 178 | 230 |  23k|  6 | 474 | 490 | 0.000000e+00 | 9.158305e-01 |    Inf |  52.07%
  5.4s|  1600 |   313 | 54246 |  33.7 |    16M |  29 | 152 | 186 | 227 |  25k|  7 | 497 | 525 | 0.000000e+00 | 9.158305e-01 |    Inf |  52.92%
  5.6s|  1700 |   315 | 56170 |  32.8 |    16M |  30 | 152 | 190 | 187 |  26k|  2 | 509 | 563 | 0.000000e+00 | 9.158305e-01 |    Inf |  54.54%
  5.8s|  1800 |   309 | 58848 |  32.5 |    16M |  30 | 152 | 190 | 201 |  27k|  2 | 517 | 621 | 0.000000e+00 | 9.158305e-01 |    Inf |  56.01%
  6.0s|  1900 |   297 | 60982 |  31.9 |    16M |  30 | 152 | 197 | 205 |  28k| 11 | 530 | 661 | 0.000000e+00 | 9.158305e-01 |    Inf |  58.26%
  6.3s|  2000 |   293 | 63871 |  31.7 |    17M |  30 | 152 | 207 | 205 |  29k|  7 | 549 | 689 | 0.000000e+00 | 9.158305e-01 |    Inf |  59.76%
  6.7s|  2100 |   292 | 66201 |  31.3 |    17M |  30 | 152 | 230 |   0 |  30k|  0 | 575 | 712 | 0.000000e+00 | 9.158305e-01 |    Inf |  60.21%
  6.9s|  2200 |   290 | 68248 |  30.8 |    18M |  30 | 152 | 232 | 162 |  31k|  2 | 591 | 741 | 0.000000e+00 | 9.158305e-01 |    Inf |  61.54%
 time | node  | left  |LP iter|LP it/n|mem/heur|mdpt |vars |cons |rows |cuts |sepa|confs|strbr|  dualbound   | primalbound  |  gap   | compl. 
  7.2s|  2300 |   308 | 72074 |  31.2 |    18M |  30 | 152 | 237 |   0 |  33k|  0 | 605 | 758 | 0.000000e+00 | 9.158305e-01 |    Inf |  61.68%
  7.5s|  2400 |   308 | 75037 |  31.1 |    18M |  30 | 152 | 246 | 171 |  34k|  7 | 624 | 779 | 0.000000e+00 | 9.158305e-01 |    Inf |  61.96%
  7.7s|  2500 |   335 | 77647 |  30.9 |    18M |  30 | 152 | 263 |   0 |  35k|  0 | 654 | 798 | 0.000000e+00 | 9.158305e-01 |    Inf |  62.40%
  7.9s|  2600 |   348 | 80066 |  30.6 |    18M |  30 | 152 | 295 | 212 |  37k|  1 | 693 | 823 | 0.000000e+00 | 9.158305e-01 |    Inf |  62.91%
  8.1s|  2700 |   358 | 83016 |  30.6 |    18M |  30 | 152 | 304 | 208 |  38k|  1 | 715 | 846 | 0.000000e+00 | 9.158305e-01 |    Inf |  62.92%
  8.3s|  2800 |   375 | 86098 |  30.6 |    19M |  30 | 152 | 303 |   0 |  40k|  0 | 729 | 863 | 0.000000e+00 | 9.158305e-01 |    Inf |  63.03%
  8.5s|  2900 |   409 | 89137 |  30.6 |    19M |  30 | 152 | 315 | 151 |  41k|  2 | 748 | 886 | 0.000000e+00 | 9.158305e-01 |    Inf |  63.08%
  8.7s|  3000 |   450 | 92222 |  30.6 |    20M |  30 | 152 | 321 | 231 |  42k|  5 | 768 | 910 | 0.000000e+00 | 9.158305e-01 |    Inf |  63.09%
  8.9s|  3100 |   481 | 94993 |  30.5 |    21M |  31 | 152 | 332 | 192 |  44k|  6 | 791 | 925 | 0.000000e+00 | 9.158305e-01 |    Inf |  63.10%
  9.1s|  3200 |   507 | 97787 |  30.4 |    21M |  31 | 152 | 344 | 172 |  45k|  8 | 809 | 946 | 0.000000e+00 | 9.158305e-01 |    Inf |  63.11%
  9.3s|  3300 |   527 |100105 |  30.2 |    21M |  31 | 152 | 356 | 164 |  46k|  2 | 829 | 966 | 0.000000e+00 | 9.158305e-01 |    Inf |  63.29%
  9.5s|  3400 |   545 |102286 |  30.0 |    22M |  31 | 152 | 365 | 177 |  47k|  1 | 845 | 982 | 0.000000e+00 | 9.158305e-01 |    Inf |  63.82%
* 9.6s|  3467 |   529 |103597 |  29.8 |    LP  |  32 | 152 | 377 | 253 |  48k|  7 | 859 | 991 | 0.000000e+00 | 8.989927e-01 |    Inf |  63.84%
  9.7s|  3500 |   529 |104220 |  29.7 |    22M |  32 | 152 | 378 | 213 |  48k|  3 | 862 |1002 | 0.000000e+00 | 8.989927e-01 |    Inf |  64.46%
 10.0s|  3600 |   539 |106338 |  29.4 |    22M |  32 | 152 | 377 | 196 |  49k|  8 | 874 |1029 | 0.000000e+00 | 8.989927e-01 |    Inf |  65.83%
 time | node  | left  |LP iter|LP it/n|mem/heur|mdpt |vars |cons |rows |cuts |sepa|confs|strbr|  dualbound   | primalbound  |  gap   | compl. 
 10.2s|  3700 |   545 |107992 |  29.1 |    22M |  32 | 152 | 383 | 208 |  50k|  2 | 890 |1053 | 0.000000e+00 | 8.989927e-01 |    Inf |  66.18%
 10.4s|  3800 |   561 |110092 |  28.9 |    23M |  32 | 152 | 402 | 183 |  51k|  0 | 925 |1081 | 0.000000e+00 | 8.989927e-01 |    Inf |  66.48%
 10.7s|  3900 |   575 |112734 |  28.8 |    23M |  32 | 152 | 417 | 190 |  52k|  1 | 944 |1107 | 0.000000e+00 | 8.989927e-01 |    Inf |  66.71%
 10.9s|  4000 |   588 |114363 |  28.5 |    23M |  32 | 152 | 428 | 189 |  53k|  0 | 963 |1121 | 0.000000e+00 | 8.989927e-01 |    Inf |  66.99%
 11.1s|  4100 |   611 |116913 |  28.4 |    24M |  32 | 152 | 430 | 157 |  54k|  1 | 977 |1145 | 0.000000e+00 | 8.989927e-01 |    Inf |  67.14%
 11.3s|  4200 |   625 |118921 |  28.2 |    24M |  34 | 152 | 442 | 209 |  55k|  0 | 997 |1171 | 0.000000e+00 | 8.989927e-01 |    Inf |  67.40%
 11.5s|  4300 |   640 |121469 |  28.2 |    24M |  34 | 152 | 444 | 220 |  56k|  8 |1018 |1197 | 0.000000e+00 | 8.989927e-01 |    Inf |  67.55%
 11.7s|  4400 |   650 |123447 |  28.0 |    24M |  35 | 152 | 459 | 185 |  57k|  2 |1042 |1230 | 0.000000e+00 | 8.989927e-01 |    Inf |  68.02%
 11.9s|  4500 |   663 |125503 |  27.8 |    25M |  35 | 152 | 459 | 165 |  58k|  0 |1051 |1248 | 0.000000e+00 | 8.989927e-01 |    Inf |  68.03%
 12.0s|  4600 |   660 |127364 |  27.6 |    25M |  35 | 152 | 463 | 177 |  59k|  7 |1067 |1275 | 0.000000e+00 | 8.989927e-01 |    Inf |  68.58%
 12.2s|  4700 |   659 |129112 |  27.4 |    25M |  35 | 152 | 462 |   0 |  60k|  0 |1077 |1294 | 0.000000e+00 | 8.989927e-01 |    Inf |  68.84%
 12.4s|  4800 |   657 |131047 |  27.2 |    25M |  35 | 152 | 472 |   0 |  61k|  0 |1098 |1318 | 0.000000e+00 | 8.989927e-01 |    Inf |  69.41%
 12.7s|  4900 |   661 |133550 |  27.2 |    26M |  35 | 152 | 482 | 226 |  62k|  3 |1120 |1343 | 0.000000e+00 | 8.989927e-01 |    Inf |  70.00%
 12.8s|  5000 |   657 |134958 |  26.9 |    26M |  37 | 152 | 480 | 174 |  62k|  0 |1130 |1352 | 0.000000e+00 | 8.989927e-01 |    Inf |  70.40%
 13.0s|  5100 |   658 |137337 |  26.8 |    26M |  37 | 152 | 498 | 214 |  63k|  2 |1161 |1380 | 0.000000e+00 | 8.989927e-01 |    Inf |  71.13%
 time | node  | left  |LP iter|LP it/n|mem/heur|mdpt |vars |cons |rows |cuts |sepa|confs|strbr|  dualbound   | primalbound  |  gap   | compl. 
 13.2s|  5200 |   660 |139096 |  26.7 |    26M |  37 | 152 | 500 | 181 |  64k|  2 |1167 |1398 | 0.000000e+00 | 8.989927e-01 |    Inf |  71.53%
 13.4s|  5300 |   648 |140401 |  26.4 |    26M |  39 | 152 | 504 |   0 |  65k|  0 |1180 |1418 | 0.000000e+00 | 8.989927e-01 |    Inf |  71.80%
 13.5s|  5400 |   634 |141580 |  26.1 |    26M |  39 | 152 | 506 | 177 |  65k|  0 |1188 |1432 | 0.000000e+00 | 8.989927e-01 |    Inf |  71.99%
 13.7s|  5500 |   630 |143705 |  26.1 |    26M |  39 | 152 | 519 | 240 |  66k|  6 |1209 |1450 | 0.000000e+00 | 8.989927e-01 |    Inf |  72.36%
 13.9s|  5600 |   610 |145499 |  25.9 |    26M |  39 | 152 | 526 | 220 |  67k|  3 |1228 |1471 | 0.000000e+00 | 8.989927e-01 |    Inf |  72.88%
 14.1s|  5700 |   603 |147190 |  25.8 |    27M |  39 | 152 | 542 |   0 |  68k|  0 |1259 |1490 | 0.000000e+00 | 8.989927e-01 |    Inf |  73.50%
 14.2s|  5800 |   592 |148819 |  25.6 |    27M |  39 | 152 | 550 |   0 |  68k|  0 |1279 |1506 | 0.000000e+00 | 8.989927e-01 |    Inf |  74.26%
 14.4s|  5900 |   577 |150324 |  25.4 |    27M |  39 | 152 | 550 | 174 |  69k|  0 |1288 |1514 | 0.000000e+00 | 8.989927e-01 |    Inf |  75.14%
 14.6s|  6000 |   552 |151754 |  25.2 |    27M |  39 | 152 | 563 |   0 |  70k|  0 |1315 |1531 | 0.000000e+00 | 8.989927e-01 |    Inf |  75.65%
 14.8s|  6100 |   532 |153680 |  25.1 |    27M |  39 | 152 | 567 | 192 |  71k|  9 |1328 |1546 | 0.000000e+00 | 8.989927e-01 |    Inf |  76.63%
 15.0s|  6200 |   513 |154927 |  24.9 |    27M |  39 | 152 | 568 | 198 |  71k|  2 |1338 |1557 | 0.000000e+00 | 8.989927e-01 |    Inf |  77.05%
 15.1s|  6300 |   491 |156525 |  24.8 |    27M |  39 | 152 | 576 | 203 |  72k|  2 |1355 |1573 | 0.000000e+00 | 8.989927e-01 |    Inf |  78.50%
 15.3s|  6400 |   483 |157992 |  24.6 |    27M |  39 | 152 | 575 | 213 |  73k|  1 |1362 |1580 | 0.000000e+00 | 8.989927e-01 |    Inf |  79.13%
 15.5s|  6500 |   480 |159551 |  24.5 |    27M |  39 | 152 | 582 |   0 |  73k|  0 |1378 |1596 | 0.000000e+00 | 8.989927e-01 |    Inf |  79.36%
 15.7s|  6600 |   455 |161214 |  24.4 |    27M |  39 | 152 | 588 | 224 |  74k|  6 |1398 |1612 | 0.000000e+00 | 8.989927e-01 |    Inf |  80.52%
 time | node  | left  |LP iter|LP it/n|mem/heur|mdpt |vars |cons |rows |cuts |sepa|confs|strbr|  dualbound   | primalbound  |  gap   | compl. 
 15.9s|  6700 |   431 |162845 |  24.2 |    27M |  39 | 152 | 604 | 247 |  75k|  8 |1420 |1626 | 0.000000e+00 | 8.989927e-01 |    Inf |  81.86%
 16.1s|  6800 |   436 |165132 |  24.2 |    27M |  39 | 152 | 611 | 188 |  76k|  0 |1435 |1651 | 0.000000e+00 | 8.989927e-01 |    Inf |  82.36%
 16.2s|  6900 |   444 |166531 |  24.1 |    27M |  39 | 152 | 604 | 175 |  77k|  3 |1439 |1657 | 0.000000e+00 | 8.989927e-01 |    Inf |  82.39%
 16.4s|  7000 |   439 |167715 |  23.9 |    27M |  39 | 152 | 606 | 208 |  77k|  0 |1449 |1670 | 0.000000e+00 | 8.989927e-01 |    Inf |  82.44%
 16.6s|  7100 |   426 |169786 |  23.9 |    27M |  39 | 152 | 609 | 180 |  78k|  2 |1460 |1681 | 0.000000e+00 | 8.989927e-01 |    Inf |  82.56%
 16.8s|  7200 |   414 |171654 |  23.8 |    27M |  39 | 152 | 615 |   0 |  79k|  0 |1475 |1696 | 0.000000e+00 | 8.989927e-01 |    Inf |  83.01%
 17.0s|  7300 |   403 |173596 |  23.7 |    28M |  39 | 152 | 620 | 172 |  80k|  1 |1491 |1720 | 0.000000e+00 | 8.989927e-01 |    Inf |  83.89%
 17.2s|  7400 |   407 |174880 |  23.6 |    28M |  39 | 152 | 629 | 180 |  81k|  5 |1507 |1732 | 0.000000e+00 | 8.989927e-01 |    Inf |  84.34%
 17.3s|  7500 |   417 |176312 |  23.5 |    28M |  39 | 152 | 634 |   0 |  81k|  0 |1517 |1749 | 0.000000e+00 | 8.989927e-01 |    Inf |  84.34%
 17.5s|  7600 |   415 |177824 |  23.3 |    28M |  39 | 152 | 637 | 180 |  82k|  2 |1521 |1764 | 0.000000e+00 | 8.989927e-01 |    Inf |  84.43%
 17.6s|  7700 |   420 |179989 |  23.3 |    28M |  39 | 152 | 637 |   0 |  83k|  0 |1523 |1783 | 0.000000e+00 | 8.989927e-01 |    Inf |  84.47%
 17.8s|  7800 |   432 |182455 |  23.3 |    28M |  39 | 152 | 638 |   0 |  84k|  0 |1527 |1795 | 0.000000e+00 | 8.989927e-01 |    Inf |  84.47%
 18.0s|  7900 |   421 |183909 |  23.2 |    28M |  39 | 152 | 638 |   0 |  85k|  0 |1529 |1804 | 0.000000e+00 | 8.989927e-01 |    Inf |  84.48%
 18.1s|  8000 |   400 |185792 |  23.2 |    28M |  39 | 152 | 637 | 218 |  86k|  6 |1534 |1820 | 2.462037e-05 | 8.989927e-01 |  Large |  84.74%
 18.3s|  8100 |   381 |187320 |  23.1 |    28M |  39 | 152 | 643 | 195 |  87k|  0 |1550 |1835 | 2.453494e-03 | 8.989927e-01 |  Large |  85.03%
 time | node  | left  |LP iter|LP it/n|mem/heur|mdpt |vars |cons |rows |cuts |sepa|confs|strbr|  dualbound   | primalbound  |  gap   | compl. 
 18.5s|  8200 |   364 |188358 |  22.9 |    28M |  39 | 152 | 641 | 223 |  87k|  6 |1554 |1847 | 2.003150e-02 | 8.989927e-01 |4387.90%|  86.40%
 18.7s|  8300 |   368 |190690 |  22.9 |    28M |  39 | 152 | 663 | 200 |  88k|  5 |1585 |1866 | 2.932570e-02 | 8.989927e-01 |2965.55%|  87.11%
 18.9s|  8400 |   382 |192681 |  22.9 |    28M |  39 | 152 | 688 | 179 |  89k|  3 |1620 |1887 | 3.880912e-02 | 8.989927e-01 |2216.45%|  87.35%
 19.1s|  8500 |   395 |194582 |  22.8 |    28M |  39 | 152 | 689 |   0 |  90k|  0 |1628 |1891 | 4.795644e-02 | 8.989927e-01 |1774.60%|  87.36%
 19.2s|  8600 |   396 |195765 |  22.7 |    28M |  39 | 152 | 693 | 171 |  91k|  2 |1639 |1894 | 6.107898e-02 | 8.989927e-01 |1371.85%|  87.38%
 19.3s|  8700 |   371 |197060 |  22.6 |    28M |  39 | 152 | 698 | 321 |  92k|  0 |1646 |1899 | 7.939347e-02 | 8.989927e-01 |1032.33%|  87.40%
 19.5s|  8800 |   335 |198559 |  22.5 |    29M |  39 | 152 | 698 |   0 |  92k|  0 |1656 |1907 | 1.210674e-01 | 8.989927e-01 | 642.56%|  88.50%
 19.6s|  8900 |   339 |200175 |  22.4 |    29M |  39 | 152 | 701 | 214 |  93k|  5 |1668 |1910 | 1.210699e-01 | 8.989927e-01 | 642.54%|  88.59%
 19.8s|  9000 |   318 |201530 |  22.3 |    29M |  39 | 152 | 706 | 164 |  94k|  7 |1689 |1918 | 1.210699e-01 | 8.989927e-01 | 642.54%|  88.94%
 19.9s|  9100 |   304 |203115 |  22.3 |    29M |  39 | 152 | 711 | 226 |  95k|  0 |1707 |1927 | 1.259049e-01 | 8.989927e-01 | 614.03%|  89.26%
 20.1s|  9200 |   271 |204480 |  22.2 |    29M |  39 | 152 | 717 | 166 |  95k|  2 |1733 |1935 | 1.397920e-01 | 8.989927e-01 | 543.09%|  90.59%
 20.3s|  9300 |   247 |205940 |  22.1 |    29M |  39 | 152 | 716 | 163 |  96k|  1 |1747 |1946 | 1.398035e-01 | 8.989927e-01 | 543.04%|  91.36%
 20.5s|  9400 |   235 |207137 |  22.0 |    29M |  39 | 152 | 713 | 172 |  97k|  2 |1756 |1950 | 1.464886e-01 | 8.989927e-01 | 513.69%|  91.63%
 20.6s|  9500 |   210 |208549 |  21.9 |    29M |  39 | 152 | 711 | 172 |  97k|  1 |1763 |1952 | 1.939005e-01 | 8.989927e-01 | 363.64%|  92.16%
 20.8s|  9600 |   180 |210039 |  21.8 |    29M |  39 | 152 | 720 | 191 |  98k|  3 |1784 |1970 | 2.021796e-01 | 8.989927e-01 | 344.65%|  93.09%
 time | node  | left  |LP iter|LP it/n|mem/heur|mdpt |vars |cons |rows |cuts |sepa|confs|strbr|  dualbound   | primalbound  |  gap   | compl. 
 21.1s|  9700 |   152 |211243 |  21.7 |    29M |  39 | 152 | 731 | 219 |  98k|  2 |1805 |1972 | 2.917119e-01 | 8.989927e-01 | 208.18%|  94.14%
 21.4s|  9800 |   128 |213294 |  21.7 |    29M |  39 | 152 | 745 | 171 |  99k|  0 |1832 |1987 | 2.977596e-01 | 8.989927e-01 | 201.92%|  95.10%
 21.5s|  9900 |   113 |214779 |  21.7 |    29M |  39 | 152 | 745 | 155 | 100k|  0 |1847 |2000 | 3.830799e-01 | 8.989927e-01 | 134.68%|  95.77%
 21.8s| 10000 |    89 |216664 |  21.6 |    29M |  39 | 152 | 753 | 146 | 101k|  2 |1867 |2014 | 3.999290e-01 | 8.989927e-01 | 124.79%|  96.96%
 21.9s| 10100 |    95 |218586 |  21.6 |    29M |  39 | 152 | 764 | 201 | 101k|  0 |1887 |2021 | 3.999305e-01 | 8.989927e-01 | 124.79%|  96.98%
 22.0s| 10200 |    81 |220433 |  21.6 |    29M |  39 | 152 | 771 |   0 | 102k|  0 |1909 |2032 | 3.999337e-01 | 8.989927e-01 | 124.79%|  97.02%
 22.3s| 10300 |    13 |221520 |  21.5 |    29M |  39 | 152 | 782 |   0 | 103k|  0 |1936 |2040 | 6.101880e-01 | 8.989927e-01 |  47.33%|  99.73%

SCIP Status        : problem is solved [optimal solution found]
Solving Time (sec) : 22.29
Solving Nodes      : 10317
Primal Bound       : +8.98992738516672e-01 (23 solutions)
Dual Bound         : +8.98992738516672e-01
Gap                : 0.00 %


--- Reading solution for model GAMS_MODEL
***
*** Solver did not provide marginals for model GAMS_MODEL
***
--- Executing after solve: elapsed 0:00:22.355
--- model.gms(314) 3 Mb
--- model.gms(524) 5 Mb
--- Putfile results /local/scratch/a/sgusev/repos/k_means/data/gams_scip_gdp.bigm/no_mode/2026-02-15_23-27-33/original/results.dat
--- Putfile statresults /local/scratch/a/sgusev/repos/k_means/data/gams_scip_gdp.bigm/no_mode/2026-02-15_23-27-33/original/resultsstat.dat
*** Status: Normal completion
--- Job model.gms Stop 02/15/26 23:27:56 elapsed 0:00:22.356
Original problem solved. Time taken: 22.896735668182373 seconds
Original objective value: 0.8989927385166789
